examples/hbmc_output/Factoring/0.smt2
(declare-datatypes () ((Nat (Z) (S (p Nat)))))
(define-fun-rec
  plus
    ((x Nat) (y Nat)) Nat
    (match x
      (case Z y)
      (case (S n) (S (plus n y)))))
(define-fun-rec
  mult
    ((x Nat) (y Nat)) Nat
    (match x
      (case Z Z)
      (case (S n) (plus y (mult n y)))))
(assert-not (forall ((x Nat)) (= (mult x x) x)))
(check-sat)
